DualBounds-Example/results/ExampleConfig-AL_BNPWL_bvap/AL-county-BNPWL-5.sol
# Objective value = 1.6223239479886173e+00
X[0,0] 0
X[0,1] 0
X[0,2] 1
X[0,3] 0
X[0,4] 0
X[0,5] 0
X[0,6] 0
X[1,0] 0
X[1,1] 0
X[1,2] 0
X[1,3] 0
X[1,4] 0
X[1,5] 0
X[1,6] 1
X[2,0] 0
X[2,1] 0
X[2,2] 0
X[2,3] 0
X[2,4] 1
X[2,5] 0
X[2,6] 0
X[3,0] 0
X[3,1] 1
X[3,2] 0
X[3,3] 0
X[3,4] 0
X[3,5] 0
X[3,6] 0
X[4,0] 1
X[4,1] 0
X[4,2] 0
X[4,3] 0
X[4,4] 0
X[4,5] 0
X[4,6] 0
X[5,0] 0
X[5,1] 0
X[5,2] 0
X[5,3] 1
X[5,4] 0
X[5,5] 0
X[5,6] 0
X[6,0] 0
X[6,1] 0
X[6,2] 0
X[6,3] 1
X[6,4] 0
X[6,5] 0
X[6,6] 0
X[7,0] 0
X[7,1] 0
X[7,2] 0
X[7,3] 0
X[7,4] 1
X[7,5] 0
X[7,6] 0
X[8,0] 0
X[8,1] 0
X[8,2] 0
X[8,3] 0
X[8,4] 0
X[8,5] 0
X[8,6] 1
X[9,0] 0
X[9,1] 0
X[9,2] 0
X[9,3] 0
X[9,4] 1
X[9,5] 0
X[9,6] 0
X[10,0] 0
X[10,1] 0
X[10,2] 0
X[10,3] 1
X[10,4] 0
X[10,5] 0
X[10,6] 0
X[11,0] 0
X[11,1] 0
X[11,2] 0
X[11,3] 0
X[11,4] 1
X[11,5] 0
X[11,6] 0
X[12,0] 0
X[12,1] 1
X[12,2] 0
X[12,3] 0
X[12,4] 0
X[12,5] 0
X[12,6] 0
X[13,0] 0
X[13,1] 0
X[13,2] 0
X[13,3] 0
X[13,4] 1
X[13,5] 0
X[13,6] 0
X[14,0] 0
X[14,1] 0
X[14,2] 1
X[14,3] 0
X[14,4] 0
X[14,5] 0
X[14,6] 0
X[15,0] 1
X[15,1] 0
X[15,2] 0
X[15,3] 0
X[15,4] 0
X[15,5] 0
X[15,6] 0
X[16,0] 0
X[16,1] 1
X[16,2] 0
X[16,3] 0
X[16,4] 0
X[16,5] 0
X[16,6] 0
X[17,0] 1
X[17,1] 0
X[17,2] 0
X[17,3] 0
X[17,4] 0
X[17,5] 0
X[17,6] 0
X[18,0] 0
X[18,1] 0
X[18,2] 0
X[18,3] 1
X[18,4] 0
X[18,5] 0
X[18,6] 0
X[19,0] 1
X[19,1] 0
X[19,2] 0
X[19,3] 0
X[19,4] 0
X[19,5] 0
X[19,6] 0
X[20,0] 0
X[20,1] 0
X[20,2] 0
X[20,3] 1
X[20,4] 0
X[20,5] 0
X[20,6] 0
X[21,0] 0
X[21,1] 0
X[21,2] 1
X[21,3] 0
X[21,4] 0
X[21,5] 0
X[21,6] 0
X[22,0] 0
X[22,1] 0
X[22,2] 0
X[22,3] 0
X[22,4] 0
X[22,5] 1
X[22,6] 0
X[23,0] 1
X[23,1] 0
X[23,2] 0
X[23,3] 0
X[23,4] 0
X[23,5] 0
X[23,6] 0
X[24,0] 0
X[24,1] 0
X[24,2] 1
X[24,3] 0
X[24,4] 0
X[24,5] 0
X[24,6] 0
X[25,0] 0
X[25,1] 0
X[25,2] 0
X[25,3] 0
X[25,4] 0
X[25,5] 0
X[25,6] 1
X[26,0] 0
X[26,1] 0
X[26,2] 1
X[26,3] 0
X[26,4] 0
X[26,5] 0
X[26,6] 0
X[27,0] 0
X[27,1] 0
X[27,2] 1
X[27,3] 0
X[27,4] 0
X[27,5] 0
X[27,6] 0
X[28,0] 0
X[28,1] 0
X[28,2] 1
X[28,3] 0
X[28,4] 0
X[28,5] 0
X[28,6] 0
X[29,0] 0
X[29,1] 0
X[29,2] 0
X[29,3] 1
X[29,4] 0
X[29,5] 0
X[29,6] 0
X[30,0] 0
X[30,1] 0
X[30,2] 0
X[30,3] 1
X[30,4] 0
X[30,5] 0
X[30,6] 0
X[31,0] 0
X[31,1] 0
X[31,2] 0
X[31,3] 1
X[31,4] 0
X[31,5] 0
X[31,6] 0
X[32,0] 0
X[32,1] 0
X[32,2] 1
X[32,3] 0
X[32,4] 0
X[32,5] 0
X[32,6] 0
X[33,0] 0
X[33,1] 0
X[33,2] 0
X[33,3] 0
X[33,4] 0
X[33,5] 0
X[33,6] 1
X[34,0] 1
X[34,1] 0
X[34,2] 0
X[34,3] 0
X[34,4] 0
X[34,5] 0
X[34,6] 0
X[35,0] 1
X[35,1] 0
X[35,2] 0
X[35,3] 0
X[35,4] 0
X[35,5] 0
X[35,6] 0
X[36,0] 0
X[36,1] 0
X[36,2] 0
X[36,3] 0
X[36,4] 0
X[36,5] 0
X[36,6] 1
X[37,0] 0
X[37,1] 0
X[37,2] 0
X[37,3] 0
X[37,4] 0
X[37,5] 0
X[37,6] 1
X[38,0] 1
X[38,1] 0
X[38,2] 0
X[38,3] 0
X[38,4] 0
X[38,5] 0
X[38,6] 0
X[39,0] 0
X[39,1] 0
X[39,2] 0
X[39,3] 0
X[39,4] 1
X[39,5] 0
X[39,6] 0
X[40,0] 0
X[40,1] 0
X[40,2] 0
X[40,3] 0
X[40,4] 1
X[40,5] 0
X[40,6] 0
X[41,0] 0
X[41,1] 0
X[41,2] 0
X[41,3] 1
X[41,4] 0
X[41,5] 0
X[41,6] 0
X[42,0] 0
X[42,1] 0
X[42,2] 0
X[42,3] 0
X[42,4] 1
X[42,5] 0
X[42,6] 0
X[43,0] 1
X[43,1] 0
X[43,2] 0
X[43,3] 0
X[43,4] 0
X[43,5] 0
X[43,6] 0
X[44,0] 0
X[44,1] 0
X[44,2] 0
X[44,3] 0
X[44,4] 0
X[44,5] 0
X[44,6] 1
X[45,0] 0
X[45,1] 0
X[45,2] 0
X[45,3] 0
X[45,4] 0
X[45,5] 0
X[45,6] 1
X[46,0] 0
X[46,1] 0
X[46,2] 0
X[46,3] 0
X[46,4] 1
X[46,5] 0
X[46,6] 0
X[47,0] 1
X[47,1] 0
X[47,2] 0
X[47,3] 0
X[47,4] 0
X[47,5] 0
X[47,6] 0
X[48,0] 0
X[48,1] 0
X[48,2] 0
X[48,3] 1
X[48,4] 0
X[48,5] 0
X[48,6] 0
X[49,0] 0
X[49,1] 1
X[49,2] 0
X[49,3] 0
X[49,4] 0
X[49,5] 0
X[49,6] 0
X[50,0] 1
X[50,1] 0
X[50,2] 0
X[50,3] 0
X[50,4] 0
X[50,5] 0
X[50,6] 0
X[51,0] 0
X[51,1] 0
X[51,2] 0
X[51,3] 0
X[51,4] 1
X[51,5] 0
X[51,6] 0
X[52,0] 1
X[52,1] 0
X[52,2] 0
X[52,3] 0
X[52,4] 0
X[52,5] 0
X[52,6] 0
X[53,0] 0
X[53,1] 0
X[53,2] 0
X[53,3] 0
X[53,4] 0
X[53,5] 0
X[53,6] 1
X[54,0] 0
X[54,1] 0
X[54,2] 0
X[54,3] 0
X[54,4] 0
X[54,5] 0
X[54,6] 1
X[55,0] 0
X[55,1] 0
X[55,2] 0
X[55,3] 0
X[55,4] 1
X[55,5] 0
X[55,6] 0
X[56,0] 0
X[56,1] 0
X[56,2] 0
X[56,3] 0
X[56,4] 1
X[56,5] 0
X[56,6] 0
X[57,0] 1
X[57,1] 0
X[57,2] 0
X[57,3] 0
X[57,4] 0
X[57,5] 0
X[57,6] 0
X[58,0] 0
X[58,1] 0
X[58,2] 1
X[58,3] 0
X[58,4] 0
X[58,5] 0
X[58,6] 0
X[59,0] 1
X[59,1] 0
X[59,2] 0
X[59,3] 0
X[59,4] 0
X[59,5] 0
X[59,6] 0
X[60,0] 0
X[60,1] 0
X[60,2] 0
X[60,3] 1
X[60,4] 0
X[60,5] 0
X[60,6] 0
X[61,0] 0
X[61,1] 0
X[61,2] 0
X[61,3] 0
X[61,4] 1
X[61,5] 0
X[61,6] 0
X[62,0] 0
X[62,1] 0
X[62,2] 1
X[62,3] 0
X[62,4] 0
X[62,5] 0
X[62,6] 0
X[63,0] 0
X[63,1] 0
X[63,2] 0
X[63,3] 0
X[63,4] 0
X[63,5] 0
X[63,6] 1
X[64,0] 1
X[64,1] 0
X[64,2] 0
X[64,3] 0
X[64,4] 0
X[64,5] 0
X[64,6] 0
X[65,0] 0
X[65,1] 0
X[65,2] 0
X[65,3] 0
X[65,4] 1
X[65,5] 0
X[65,6] 0
X[66,0] 1
X[66,1] 0
X[66,2] 0
X[66,3] 0
X[66,4] 0
X[66,5] 0
X[66,6] 0
C469 0
C470 0
C471 0
C472 0
C473 0
C474 0
C475 0
C476 0
C477 0
C478 0
C479 0
C480 0
C481 0
C482 0
C483 0
C484 0
C485 0
C486 0
C487 0
C488 0
C489 0
C490 0
C491 0
C492 0
C493 0
C494 0
C495 0
C496 0
C497 0
C498 0
C499 0
C500 0
C501 0
C502 0
C503 0
C504 0
C505 0
C506 0
C507 0
C508 0
C509 0
C510 0
C511 0
C512 0
C513 0
C514 0
C515 0
C516 0
C517 0
C518 0
C519 0
C520 0
C521 0
C522 0
C523 0
C524 0
C525 0
C526 0
C527 0
C528 0
C529 0
C530 0
C531 0
C532 0
C533 0
C534 0
C535 0
C536 0
C537 0
C538 0
C539 0
C540 0
C541 0
C542 0
C543 0
C544 0
C545 0
C546 0
C547 0
C548 0
C549 0
C550 0
C551 0
C552 0
C553 0
C554 0
C555 0
C556 0
C557 0
C558 0
C559 0
C560 0
C561 0
C562 0
C563 0
C564 0
C565 0
C566 0
C567 0
C568 0
C569 0
C570 0
C571 0
C572 0
C573 0
C574 0
C575 0
C576 0
C577 0
C578 0
C579 0
C580 0
C581 0
C582 0
C583 0
C584 0
C585 0
C586 0
C587 0
C588 0
C589 0
C590 0
C591 0
C592 0
C593 0
C594 0
C595 0
C596 0
C597 0
C598 0
C599 0
C600 0
C601 0
C602 0
C603 0
C604 0
C605 0
C606 0
C607 0
C608 0
C609 0
C610 0
C611 0
C612 0
C613 0
C614 0
C615 0
C616 0
C617 0
C618 0
C619 0
C620 0
C621 0
C622 0
C623 0
C624 0
C625 0
C626 0
C627 0
C628 0
C629 0
C630 0
C631 0
C632 0
C633 0
C634 0
C635 0
C636 0
C637 0
C638 0
C639 0
C640 0
C641 0
C642 0
C643 0
C644 0
C645 0
C646 0
C647 0
C648 0
C649 0
C650 0
C651 0
C652 0
C653 0
C654 0
C655 0
C656 0
C657 0
C658 0
C659 0
C660 0
C661 0
C662 0
C663 0
C664 0
C665 0
C666 0
C667 0
C668 0
C669 0
C670 0
C671 0
C672 0
C673 0
C674 0
C675 0
C676 0
C677 0
C678 0
C679 0
C680 0
C681 0
C682 0
C683 0
C684 0
C685 0
C686 0
C687 0
C688 0
C689 0
C690 0
C691 0
C692 0
C693 0
C694 0
C695 0
C696 0
C697 0
C698 0
C699 0
C700 0
C701 0
C702 0
C703 0
C704 0
C705 0
C706 0
C707 0
C708 0
C709 0
C710 0
C711 0
C712 0
C713 0
C714 0
C715 0
C716 0
C717 0
C718 0
C719 0
C720 0
C721 0
C722 0
C723 0
C724 0
C725 0
C726 0
C727 0
C728 0
C729 0
C730 0
C731 0
C732 0
C733 0
C734 0
C735 0
C736 0
C737 0
C738 0
C739 0
C740 0
C741 0
C742 0
C743 0
C744 0
C745 0
C746 0
C747 0
C748 0
C749 0
C750 0
C751 0
C752 0
C753 0
C754 0
C755 0
C756 0
C757 0
C758 0
C759 0
C760 0
C761 0
C762 0
C763 0
C764 0
C765 0
C766 0
C767 0
C768 0
C769 0
C770 0
C771 0
C772 0
C773 0
C774 0
C775 0
C776 0
C777 0
C778 0
C779 0
C780 0
C781 0
C782 0
C783 0
C784 0
C785 0
C786 0
C787 0
C788 0
C789 0
C790 0
C791 0
C792 0
C793 0
C794 0
C795 0
C796 0
C797 0
C798 0
C799 0
C800 0
C801 0
C802 0
C803 0
C804 0
C805 0
C806 0
C807 0
C808 0
C809 0
C810 0
C811 0
C812 0
C813 0
C814 0
C815 0
C816 0
C817 0
C818 0
C819 0
C820 0
C821 0
C822 0
C823 0
C824 0
C825 0
C826 0
C827 0
C828 0
C829 0
C830 0
C831 0
C832 0
C833 0
C834 0
C835 0
C836 0
C837 0
C838 0
C839 0
C840 0
C841 0
C842 0
C843 0
C844 0
C845 0
C846 0
C847 0
C848 0
C849 0
C850 0
C851 0
C852 0
C853 0
C854 0
C855 0
C856 0
C857 0
C858 0
C859 0
C860 0
C861 0
C862 0
C863 0
C864 0
C865 0
C866 0
C867 0
C868 0
C869 0
C870 0
C871 0
C872 0
C873 0
C874 0
C875 0
C876 0
C877 0
C878 0
C879 0
C880 0
C881 0
C882 0
C883 0
C884 0
C885 0
C886 0
C887 0
C888 0
C889 0
C890 0
C891 0
C892 0
C893 0
C894 0
C895 0
C896 0
C897 0
C898 0
C899 0
C900 0
C901 0
C902 0
C903 0
C904 0
C905 0
C906 0
C907 0
C908 0
C909 0
C910 0
C911 0
C912 0
C913 0
C914 0
C915 0
C916 0
C917 0
C918 0
C919 0
C920 0
C921 0
C922 0
C923 0
C924 0
C925 0
C926 0
C927 0
C928 0
C929 0
C930 0
C931 0
C932 0
C933 0
C934 0
C935 0
C936 0
C937 0
vap0 597136
vap1 554254
vap2 602930
vap3 608850
vap4 513654
vap5 527087
vap6 513255
bvap0 30367
bvap1 99793
bvap2 106597
bvap3 120656
bvap4 183242
bvap5 213751
bvap6 227317
f[0] 8.4353637992130442e-03
f[1] 6.4036972175854689e-02
f[2] 6.2151433238997841e-02
f[3] 0.0705900273687571
f[4] 3.4915213419841079e-01
f[5] 4.8963343755093230e-01
f[6] 5.7832457965645157e-01
l[0,0] 3.0076977076155087e-02
l[0,1] 5.2864022402577016e-01
l[0,2] 4.4128279889807481e-01
l[0,3] 0
l[1,0] 3.3166035861444776e-01
l[1,1] -1.1102230246251565e-16
l[1,2] 1.1196881971594062e-01
l[1,3] 5.5637082166961160e-01
l[2,0] 4.2296657280740368e-01
l[2,1] -1.1102230246251565e-16
l[2,2] 0.05987974253561
l[2,3] 5.1715368465698630e-01
l[3,0] 1.4332166994698414e-02
l[3,1] -1.1102230246251565e-16
l[3,2] 4.7521820636837919e-01
l[3,3] 5.1044962663692239e-01
l[4,0] 1.6637966532692894e-02
l[4,1] -2.2204460492503131e-16
l[4,2] 4.1274916015563196e-01
l[4,3] 5.7061287331167543e-01
l[5,0] 1.3672832412860458e-01
l[5,1] -2.2204460492503131e-16
l[5,2] 3.1138707639694596e-01
l[5,3] 5.5188459947444968e-01
l[6,0] 4.3643162368162469e-01
l[6,1] 5.5785277888770557e-01
l[6,2] 5.7155974306692956e-03
l[6,3] 0
xi[0,0] 597136
xi[0,1] 5.6330267631611647e+05
xi[0,2] 5.9158650700718327e+05
xi[0,3] 5.9723711344609759e+05
xi[0,4] 597906.761602297
xi[0,5] 5.9775196924145916e+05
xi[1,0] 554254
xi[1,1] 5.5025305417835223e+05
xi[1,2] 5.6307281330924458e+05
xi[1,3] 5.6136653998145717e+05
xi[1,4] 5.6289771159082570e+05
xi[1,5] 5.6315487416907575e+05
xi[2,0] 602930
xi[2,1] 597827.592376669
xi[2,2] 6.1214091216913459e+05
xi[2,3] 610475.060359732
xi[2,4] 6.1204522153802239e+05
xi[2,5] 6.1227747338107263e+05
xi[3,0] 608850
xi[3,1] 6.0867710558475379e+05
xi[3,2] 6.2068993586633587e+05
xi[3,3] 6.1774457691750780e+05
xi[3,4] 6.1996403021736513e+05
xi[3,5] 620513.870218079
xi[4,0] 513654
xi[4,1] 5.4467809490583255e+05
xi[4,2] 5.3953302320683235e+05
xi[4,3] 5.4472857603928656e+05
xi[4,4] 545360.245772328
xi[4,5] 5.4520861754791171e+05
xi[5,0] 527087
xi[5,1] 5.6876385750407656e+05
xi[5,2] 5.5865992251286865e+05
xi[5,3] 5.6643945078752958e+05
xi[5,4] 5.6828617973705754e+05
xi[5,5] 568696.299313174
xi[6,0] 513255
xi[6,1] 561176.239253848
xi[6,2] 5.5304649452136678e+05
xi[6,3] 5.5980699055782391e+05
xi[6,4] 5.6116756581486319e+05
xi[6,5] 5.6134096793867170e+05
eta_rhs[0,0] 30367
eta_rhs[0,1] -2.0045860430494510e+05
eta_rhs[0,2] 8.6711947917433426e+04
eta_rhs[0,3] 2.8308788512750063e+04
eta_rhs[0,4] -1.0303468413680421e+03
eta_rhs[0,5] -1.3643329951766093e+04
eta_rhs[1,0] 99793
eta_rhs[1,1] -1.1990711293416051e+05
eta_rhs[1,2] 1.0254085851502139e+04
eta_rhs[1,3] -4.4986077332741741e+04
eta_rhs[1,4] 1.7386939070543645e+04
eta_rhs[1,5] 3.5675010743376110e+03
eta_rhs[2,0] 106597
eta_rhs[2,1] -1.3224853534875438e+05
eta_rhs[2,2] 1.3077039318099385e+04
eta_rhs[2,3] -4.6986231890354538e+04
eta_rhs[2,4] 1.6975043469793578e+04
eta_rhs[2,5] 1.9495892558911219e+03
eta_rhs[3,0] 120656
eta_rhs[3,1] -1.2152519892078306e+05
eta_rhs[3,2] 4.4311376725370064e+02
eta_rhs[3,3] -6.0397272491880372e+04
eta_rhs[3,4] 3.0013231614606331e+04
eta_rhs[3,5] 1.4789513248766954e+04
eta_rhs[4,0] 183242
eta_rhs[4,1] -2.7273342471631069e+04
eta_rhs[4,2] -7.9512132086674712e+04
eta_rhs[4,3] 2.6245775389453396e+04
eta_rhs[4,4] -5.1440316214721315e+02
eta_rhs[4,5] -1.2869562185326140e+04
eta_rhs[5,0] 213751
eta_rhs[5,1] -4.2272883612120058e+03
eta_rhs[5,2] -1.0681426191083714e+05
eta_rhs[5,3] 5.1541674022714607e+04
eta_rhs[5,4] 2.3685723321882066e+04
eta_rhs[5,5] 9.7321486214560173e+03
eta_rhs[6,0] 227317
eta_rhs[6,1] 1.3599338613304892e+04
eta_rhs[6,2] -9.6142022088616155e+04
eta_rhs[6,3] 4.1471036111437461e+04
eta_rhs[6,4] 1.3952655333547380e+04
eta_rhs[6,5] 1.7671158226155842e+02
eta[0,0] 30367
eta[0,1] 2.0045860430494515e+05
eta[0,2] 8.6711947917433426e+04
eta[0,3] 2.8308788512750063e+04
eta[0,4] 1.0303468413680130e+03
eta[0,5] 1.3643329951766122e+04
eta[1,0] 99793
eta[1,1] 1.1990711293415990e+05
eta[1,2] 1.0254085851502139e+04
eta[1,3] 4.4986077332741741e+04
eta[1,4] 1.7386939070543645e+04
eta[1,5] 3.5675010743376110e+03
eta[2,0] 106597
eta[2,1] 1.3224853534875438e+05
eta[2,2] 1.3077039318099385e+04
eta[2,3] 4.6986231890354538e+04
eta[2,4] 1.6975043469793578e+04
eta[2,5] 1.9495892558911219e+03
eta[3,0] 120656
eta[3,1] 1.2152519892078302e+05
eta[3,2] 4.4311376725370064e+02
eta[3,3] 6.0397272491880372e+04
eta[3,4] 3.0013231614606331e+04
eta[3,5] 1.4789513248766954e+04
eta[4,0] 183242
eta[4,1] 27273.3424716311
eta[4,2] 7.9512132086676022e+04
eta[4,3] 2.6245775389449263e+04
eta[4,4] 5.1440316214716222e+02
eta[4,5] 1.2869562185326122e+04
eta[5,0] 213751
eta[5,1] 4.2272883612119185e+03
eta[5,2] 1.0681426191083464e+05
eta[5,3] 51541.6740227174
eta[5,4] 2.3685723321882066e+04
eta[5,5] 9.7321486214560173e+03
eta[6,0] 227317
eta[6,1] 1.3599338613304833e+04
eta[6,2] 9.6142022088616155e+04
eta[6,3] 4.1471036111436595e+04
eta[6,4] 1.3952655333547380e+04
eta[6,5] 1.7671158226155842e+02
delta[0,1] 1
delta[0,2] 0
delta[0,3] 0
delta[0,4] 1
delta[0,5] 1
delta[1,1] 1
delta[1,2] 0
delta[1,3] 1
delta[1,4] 0
delta[1,5] 0
delta[2,1] 1
delta[2,2] 0
delta[2,3] 1
delta[2,4] 0
delta[2,5] 0
delta[3,1] 1
delta[3,2] 0
delta[3,3] 1
delta[3,4] 0
delta[3,5] 0
delta[4,1] 1
delta[4,2] 1
delta[4,3] 0
delta[4,4] 1
delta[4,5] 1
delta[5,1] 1
delta[5,2] 1
delta[5,3] 0
delta[5,4] 0
delta[5,5] 0
delta[6,1] 0
delta[6,2] 1
delta[6,3] 0
delta[6,4] 0
delta[6,5] 0
