DualBounds-Example/results/ExampleConfig-AL_BNPWL_bvap/AL-county-BNPWL-5.log

Gurobi 10.0.2 (mac64[x86]) logging started Fri Sep 27 11:04:07 2024

Set parameter LogFile to value "results/ExampleConfig-AL_BNPWL_bvap/AL-county-BNPWL-5.log"
Gurobi Optimizer version 10.0.2 build v10.0.2rc0 (mac64[x86])

CPU model: Intel(R) Core(TM) i7-9750H CPU @ 2.60GHz
Thread count: 6 physical cores, 12 logical processors, using up to 12 threads

Optimize a model with 655 rows, 1148 columns and 5229 nonzeros
Model fingerprint: 0x8051a9b9
Variable types: 175 continuous, 973 integer (973 binary)
Coefficient statistics:
  Matrix range     [2e-03, 1e+06]
  Objective range  [1e+00, 1e+00]
  Bounds range     [1e+00, 1e+06]
  RHS range        [1e+00, 1e+06]

Warning: Completing partial solution with 906 unfixed non-continuous variables out of 973
User MIP start produced solution with objective 1.62232 (0.02s)
User MIP start produced solution with objective 1.62232 (0.03s)
Loaded user MIP start with objective 1.62232

Presolve removed 77 rows and 56 columns
Presolve time: 0.04s
Presolved: 578 rows, 1092 columns, 4606 nonzeros
Variable types: 105 continuous, 987 integer (973 binary)
Root relaxation presolved: 578 rows, 1092 columns, 4606 nonzeros


Use crossover to convert LP symmetric solution to basic solution...

Root relaxation: objective 5.705895e+00, 503 iterations, 0.01 seconds (0.00 work units)

    Nodes    |    Current Node    |     Objective Bounds      |     Work
 Expl Unexpl |  Obj  Depth IntInf | Incumbent    BestBd   Gap | It/Node Time

     0     0    5.70589    0   47    1.62232    5.70589   252%     -    0s
     0     0    5.70246    0   68    1.62232    5.70246   251%     -    0s
     0     0    5.64556    0   57    1.62232    5.64556   248%     -    0s
     0     0    5.50142    0   60    1.62232    5.50142   239%     -    0s
     0     0    5.50142    0   54    1.62232    5.50142   239%     -    0s
     0     0    5.42819    0   53    1.62232    5.42819   235%     -    0s
     0     0    5.38692    0   51    1.62232    5.38692   232%     -    0s
     0     0    5.32094    0   53    1.62232    5.32094   228%     -    0s
     0     0    5.32094    0   57    1.62232    5.32094   228%     -    0s
     0     0    5.31927    0   61    1.62232    5.31927   228%     -    0s
     0     0    5.31927    0   52    1.62232    5.31927   228%     -    0s
     0     0    5.31927    0   57    1.62232    5.31927   228%     -    0s
     0     0    5.31927    0   56    1.62232    5.31927   228%     -    0s
     0     0    5.29663    0   48    1.62232    5.29663   226%     -    0s
     0     0    5.29657    0   50    1.62232    5.29657   226%     -    0s
     0     0    5.29314    0   63    1.62232    5.29314   226%     -    0s
     0     0    5.28877    0   60    1.62232    5.28877   226%     -    0s
     0     0    5.28559    0   63    1.62232    5.28559   226%     -    0s
     0     0    5.28556    0   53    1.62232    5.28556   226%     -    0s
     0     0    5.28211    0   70    1.62232    5.28211   226%     -    0s
     0     0    5.28211    0   65    1.62232    5.28211   226%     -    0s
     0     0    5.28191    0   67    1.62232    5.28191   226%     -    0s
     0     0    5.28189    0   66    1.62232    5.28189   226%     -    0s
     0     0    5.28189    0   69    1.62232    5.28189   226%     -    0s
     0     0    5.28189    0   62    1.62232    5.28189   226%     -    0s

Cutting planes:
  Gomory: 1
  Cover: 11
  Implied bound: 1
  MIR: 28
  RLT: 4
  Relax-and-lift: 2

Explored 1 nodes (3747 simplex iterations) in 1.01 seconds (0.48 work units)
Thread count was 12 (of 12 available processors)

Solution count 1: 1.62232 

Time limit reached
Best objective 1.622323947989e+00, best bound 5.281893168470e+00, gap 225.5757%

User-callback calls 1690, time in user-callback 0.03 sec
Warning: constraint name "vertex to district[0]" has a space
